JulietBench/Juliet_Based_Patch_Bench/FFmpeg/CWE-189-Numeric-Errors/CVE_2015_6819_84afc6b70d24fc0bf686e43138c96cf60a9445fe/Resultff_mjpeg_decode_frame_Snippet_patch2NEQ.smt2
; benchmark generated from python API
(set-info :status unknown)
(declare-fun R () (_ BitVec 32))
(declare-fun rsi () (_ BitVec 64))
(declare-fun rdi () (_ BitVec 64))
(assert
 (let (($x177 (= (_ bv0 32) R)))
 (let ((?x8 ((_ extract 31 0) rsi)))
 (let (($x12 (= (_ bv0 32) ?x8)))
 (let (($x118 (and $x12 $x177)))
 (let (($x38 (and (distinct (_ bv0 32) ?x8) true)))
 (let (($x150 (and $x38 $x177)))
 (let (($x288 (or $x150 $x118)))
 (let (($x76 (not $x288)))
 (let ((?x6 ((_ extract 31 0) rdi)))
 (let (($x260 (= (_ bv0 32) ?x6)))
 (let (($x167 (and $x260 $x12 $x177)))
 (let (($x289 (not $x12)))
 (let (($x7184 (= (_ bv4294810760 32) ?x6)))
 (let ((?x34 ((_ sign_extend 32) ?x6)))
 (let ((?x3563 (bvshl ?x34 (_ bv1 64))))
 (let ((?x9484 (bvadd ?x3563 (_ bv18446744073709551614 64))))
 (let (($x7349 (bvule ?x9484 (_ bv18446744073709238542 64))))
 (let (($x9404 (= (_ bv18446744073709238542 64) ?x9484)))
 (let (($x174 (and $x9404 $x7349 $x7184 $x289 $x177)))
 (let (($x72 (or $x174 $x167)))
 (let (($x359 (not $x72)))
 (let (($x111 (and $x359 $x76)))
 (let (($x180 (and $x72 $x288)))
 (let (($x3457 (or $x180 $x111)))
 (not $x3457))))))))))))))))))))))))))
(check-sat)
